% Logging successfully configured
%%%mzn-stat: initTime=0.028974077
%%%mzn-stat: objective=1046
%%%mzn-stat: nodes=120
%%%mzn-stat: restarts=0
%%%mzn-stat: peakDepth=119
%%%mzn-stat: solveTime=0.000349139
%%%mzn-stat: variables=282
%%%mzn-stat: propagators=375
%%%mzn-stat: failures=1
%%%mzn-stat: propagations=1347
%%%mzn-stat: nogoods=1
%%%mzn-stat: numAtomicConstraintsPropagated=0
%%%mzn-stat: circuitNumber191PropagationsThatFoundConflict=1
%%%mzn-stat: circuitNumber191TotalFixedEdgesAtConflict=20
%%%mzn-stat: circuitNumber191NumberOfConflicts=1
%%%mzn-stat: circuitNumber191PropagationsThatPruned=4
%%%mzn-stat: circuitNumber191PropagationsTotal=19
%%%mzn-stat: AverageConflictSize=18
%%%mzn-stat: NumUnitNogoodsLearned=0
%%%mzn-stat: AverageLearnedNogoodLength=13
%%%mzn-stat: AverageBacktrackAmount=0
%%%mzn-stat: AverageLbd=13
%%%mzn-stat: 2AutonomousSearchNumBackupCalled=107
%%%mzn-stat: 2AutonomousSearchNumPredicatesRemoved=0
%%%mzn-stat: 2AutonomousSearchNumCalls=108
%%%mzn-stat: 2AutonomousSearchNumPredicatesAdded=72
%%%mzn-stat: 2AutonomousSearchAverageSizeOfHeap=0.6666666666666666
%%%mzn-stat: 2AutonomousSearchNumAssignedPredicatesEncountered=72
%%%mzn-stat-end
maxleg = 1046;
succ = array1d(1..20,[3, 5, 2, 1, 11, 9, 4, 7, 8, 6, 14, 13, 19, 16, 20, 18, 10, 12, 15, 17]);
% time elapsed: 5.77 s
----------
%%%mzn-stat: initTime=0.028974077
%%%mzn-stat: objective=459
%%%mzn-stat: nodes=259
%%%mzn-stat: restarts=0
%%%mzn-stat: peakDepth=123
%%%mzn-stat: solveTime=0.001575078
%%%mzn-stat: variables=282
%%%mzn-stat: propagators=375
%%%mzn-stat: failures=18
%%%mzn-stat: propagations=4833
%%%mzn-stat: nogoods=18
%%%mzn-stat: numAtomicConstraintsPropagated=0
%%%mzn-stat: circuitNumber191PropagationsThatFoundConflict=15
%%%mzn-stat: circuitNumber191TotalFixedEdgesAtConflict=295
%%%mzn-stat: circuitNumber191NumberOfConflicts=15
%%%mzn-stat: circuitNumber191PropagationsThatPruned=22
%%%mzn-stat: circuitNumber191PropagationsTotal=75
%%%mzn-stat: AverageConflictSize=14.444444444444445
%%%mzn-stat: NumUnitNogoodsLearned=0
%%%mzn-stat: AverageLearnedNogoodLength=12.88888888888889
%%%mzn-stat: AverageBacktrackAmount=0
%%%mzn-stat: AverageLbd=12.38888888888889
%%%mzn-stat: 2AutonomousSearchNumBackupCalled=214
%%%mzn-stat: 2AutonomousSearchNumPredicatesRemoved=0
%%%mzn-stat: 2AutonomousSearchNumCalls=216
%%%mzn-stat: 2AutonomousSearchNumPredicatesAdded=266
%%%mzn-stat: 2AutonomousSearchAverageSizeOfHeap=1.2314814814814814
%%%mzn-stat: 2AutonomousSearchNumAssignedPredicatesEncountered=266
%%%mzn-stat-end
maxleg = 459;
succ = array1d(1..20,[3, 5, 2, 1, 11, 9, 4, 7, 8, 6, 17, 13, 14, 16, 19, 18, 20, 10, 12, 15]);
% time elapsed: 5.77 s
----------
%%%mzn-stat: initTime=0.028974077
%%%mzn-stat: objective=404
%%%mzn-stat: nodes=378
%%%mzn-stat: restarts=0
%%%mzn-stat: peakDepth=123
%%%mzn-stat: solveTime=0.002266087
%%%mzn-stat: variables=282
%%%mzn-stat: propagators=375
%%%mzn-stat: failures=29
%%%mzn-stat: propagations=6556
%%%mzn-stat: nogoods=29
%%%mzn-stat: numAtomicConstraintsPropagated=0
%%%mzn-stat: circuitNumber191PropagationsThatFoundConflict=16
%%%mzn-stat: circuitNumber191TotalFixedEdgesAtConflict=309
%%%mzn-stat: circuitNumber191NumberOfConflicts=16
%%%mzn-stat: circuitNumber191PropagationsThatPruned=26
%%%mzn-stat: circuitNumber191PropagationsTotal=100
%%%mzn-stat: AverageConflictSize=10
%%%mzn-stat: NumUnitNogoodsLearned=0
%%%mzn-stat: AverageLearnedNogoodLength=12.068965517241379
%%%mzn-stat: AverageBacktrackAmount=0
%%%mzn-stat: AverageLbd=10.206896551724139
%%%mzn-stat: 2AutonomousSearchNumBackupCalled=308
%%%mzn-stat: 2AutonomousSearchNumPredicatesRemoved=0
%%%mzn-stat: 2AutonomousSearchNumCalls=311
%%%mzn-stat: 2AutonomousSearchNumPredicatesAdded=455
%%%mzn-stat: 2AutonomousSearchAverageSizeOfHeap=1.5916398713826367
%%%mzn-stat: 2AutonomousSearchNumAssignedPredicatesEncountered=495
%%%mzn-stat-end
maxleg = 404;
succ = array1d(1..20,[3, 5, 2, 1, 11, 9, 4, 7, 8, 16, 14, 13, 15, 19, 20, 18, 10, 6, 12, 17]);
% time elapsed: 5.77 s
----------
%%%mzn-stat: initTime=0.028974077
%%%mzn-stat: objective=362
%%%mzn-stat: nodes=481
%%%mzn-stat: restarts=0
%%%mzn-stat: peakDepth=123
%%%mzn-stat: solveTime=0.002441359
%%%mzn-stat: variables=282
%%%mzn-stat: propagators=375
%%%mzn-stat: failures=29
%%%mzn-stat: propagations=7265
%%%mzn-stat: nogoods=29
%%%mzn-stat: numAtomicConstraintsPropagated=0
%%%mzn-stat: circuitNumber191PropagationsThatFoundConflict=16
%%%mzn-stat: circuitNumber191TotalFixedEdgesAtConflict=309
%%%mzn-stat: circuitNumber191NumberOfConflicts=16
%%%mzn-stat: circuitNumber191PropagationsThatPruned=30
%%%mzn-stat: circuitNumber191PropagationsTotal=116
%%%mzn-stat: AverageConflictSize=10
%%%mzn-stat: NumUnitNogoodsLearned=0
%%%mzn-stat: AverageLearnedNogoodLength=12.068965517241379
%%%mzn-stat: AverageBacktrackAmount=0
%%%mzn-stat: AverageLbd=10.206896551724139
%%%mzn-stat: 2AutonomousSearchNumBackupCalled=398
%%%mzn-stat: 2AutonomousSearchNumPredicatesRemoved=0
%%%mzn-stat: 2AutonomousSearchNumCalls=402
%%%mzn-stat: 2AutonomousSearchNumPredicatesAdded=455
%%%mzn-stat: 2AutonomousSearchAverageSizeOfHeap=1.800995024875622
%%%mzn-stat: 2AutonomousSearchNumAssignedPredicatesEncountered=724
%%%mzn-stat-end
maxleg = 362;
succ = array1d(1..20,[3, 5, 2, 1, 11, 9, 4, 7, 8, 16, 14, 13, 19, 12, 20, 18, 10, 6, 15, 17]);
% time elapsed: 5.77 s
----------
%%%mzn-stat: initTime=0.028974077
%%%mzn-stat: objective=356
%%%mzn-stat: nodes=577
%%%mzn-stat: restarts=0
%%%mzn-stat: peakDepth=123
%%%mzn-stat: solveTime=0.002707266
%%%mzn-stat: variables=282
%%%mzn-stat: propagators=375
%%%mzn-stat: failures=30
%%%mzn-stat: propagations=8199
%%%mzn-stat: nogoods=30
%%%mzn-stat: numAtomicConstraintsPropagated=0
%%%mzn-stat: circuitNumber191PropagationsThatFoundConflict=17
%%%mzn-stat: circuitNumber191TotalFixedEdgesAtConflict=329
%%%mzn-stat: circuitNumber191NumberOfConflicts=17
%%%mzn-stat: circuitNumber191PropagationsThatPruned=34
%%%mzn-stat: circuitNumber191PropagationsTotal=133
%%%mzn-stat: AverageConflictSize=10.2
%%%mzn-stat: NumUnitNogoodsLearned=0
%%%mzn-stat: AverageLearnedNogoodLength=12.366666666666667
%%%mzn-stat: AverageBacktrackAmount=0
%%%mzn-stat: AverageLbd=10.3
%%%mzn-stat: 2AutonomousSearchNumBackupCalled=480
%%%mzn-stat: 2AutonomousSearchNumPredicatesRemoved=0
%%%mzn-stat: 2AutonomousSearchNumCalls=485
%%%mzn-stat: 2AutonomousSearchNumPredicatesAdded=535
%%%mzn-stat: 2AutonomousSearchAverageSizeOfHeap=1.977319587628866
%%%mzn-stat: 2AutonomousSearchNumAssignedPredicatesEncountered=959
%%%mzn-stat-end
maxleg = 356;
succ = array1d(1..20,[3, 5, 2, 1, 11, 9, 4, 7, 8, 16, 14, 15, 12, 19, 20, 18, 10, 6, 13, 17]);
% time elapsed: 5.77 s
----------
==========
% time elapsed: 6.16 s
%%%mzn-stat: initTime=0.028974077
%%%mzn-stat: objective=356
%%%mzn-stat: nodes=5021
%%%mzn-stat: restarts=0
%%%mzn-stat: peakDepth=123
%%%mzn-stat: solveTime=0.403070262
%%%mzn-stat: variables=282
%%%mzn-stat: propagators=375
%%%mzn-stat: failures=4240
%%%mzn-stat: propagations=691673
%%%mzn-stat: nogoods=4240
%%%mzn-stat: numAtomicConstraintsPropagated=0
%%%mzn-stat: circuitNumber191PropagationsThatFoundConflict=3144
%%%mzn-stat: circuitNumber191TotalFixedEdgesAtConflict=57066
%%%mzn-stat: circuitNumber191NumberOfConflicts=3144
%%%mzn-stat: circuitNumber191PropagationsThatPruned=2871
%%%mzn-stat: circuitNumber191PropagationsTotal=10084
%%%mzn-stat: AverageConflictSize=13.435141509433961
%%%mzn-stat: NumUnitNogoodsLearned=1
%%%mzn-stat: AverageLearnedNogoodLength=25.296698113207547
%%%mzn-stat: AverageBacktrackAmount=0
%%%mzn-stat: AverageLbd=6.905424528301887
%%%mzn-stat: 2AutonomousSearchNumBackupCalled=480
%%%mzn-stat: 2AutonomousSearchNumPredicatesRemoved=0
%%%mzn-stat: 2AutonomousSearchNumCalls=485
%%%mzn-stat: 2AutonomousSearchNumPredicatesAdded=1294
%%%mzn-stat: 2AutonomousSearchAverageSizeOfHeap=1.977319587628866
%%%mzn-stat: 2AutonomousSearchNumAssignedPredicatesEncountered=959
%%%mzn-stat-end
